NAME : Unnamed.939.tour
COMMENT : Length = 939
COMMENT : Found by LKH [Keld Helsgaun] Sat Oct 04 21:49:48 2014
TYPE : TOUR
DIMENSION : 53
TOUR_SECTION
1
5
12
6
10
3
4
7
11
13
29
30
33
16
8
14
18
19
34
39
44
24
26
32
31
41
28
49
51
37
47
52
50
43
40
46
48
45
42
38
36
35
23
21
20
27
22
25
17
15
9
2
53
-1
EOF
